\Problem name: 

Minimize
obj: - x0 - x1 - x2 - x3
Subject To
cons0:  x2 + x3 >= 1
cons1:  x3 >= -1
cons2:  x0 >= 0
cons3:  x0 + x1 >= 0
cons4:  x1 + x2 >= 0
cons5:  x1 >= 0
cons6:  x0 + x2 >= 0
cons7:  x1 + x3 >= 1
cons8:  x2 >= -1
cons9:  x0 + x3 >= 0
cons10:  >= -1
cons11:  >= -2
cons12:  >= 0
cons13:  >= 0
cons14:  >= -1
cons15:  >= -2
cons16:  >= 0
cons17:  >= -1
cons18:  >= 0
cons19:  >= -1
cons20:  x0 >= 1
cons21:  x1 >= 0
cons22:  x2 >= -1
cons23:  x3 >= -1
cons24:  >= -1
cons25:  x0 >= -1
cons26:  x1 >= 0
cons27:  x2 >= 0
cons28:  x3 >= 0
cons29:  >= -1
cons30:  x0 >= 0
cons31:  x1 >= -1
cons32:  x2 >= 1
cons33:  x3 >= 0
cons34:  >= -2
cons35:  >= -2
cons36:  >= -2
cons37:  >= -1
cons38:  >= -2
cons39:  >= -1
cons40:  >= -2
cons41:  >= -2
cons42:  >= -1
cons43:  >= -2
cons44:  >= -1
cons45:  >= -1
cons46:  >= 0
cons47:  >= 0
cons48:  >= -2
cons49:  >= -1
cons50:  >= -1
cons51:  >= 0
cons52:  >= -1
cons53:  >= 0
cons54:  >= -2
cons55:  >= -1
cons56:  >= -2
cons57:  >= -2
cons58:  >= -1
cons59:  >= 0
cons60:  >= -1
cons61:  >= -1
cons62:  >= -1
cons63:  >= -1
cons64:  >= -2
cons65:  >= -2
cons66:  >= -1
cons67:  >= 0
cons68:  >= -2
cons69:  >= -1
cons70:  >= -1
cons71:  >= 0
cons72:  >= -1
cons73:  >= 0
cons74:  >= -1
cons75:  >= -1
cons76:  >= 0
cons77:  >= 0
cons78:  >= -1
cons79:  >= 0
cons80:  >= 0
cons81:  >= -1
cons82:  >= -2
cons83:  >= -1
cons84:  >= 0
cons85:  >= 0
cons86:  >= -2
cons87:  >= 0
cons88:  >= -2
cons89:  >= 0
cons90:  >= -1
cons91:  >= 0
cons92:  >= 0
cons93:  >= 0
cons94:  >= -2
cons95:  >= 0
cons96:  >= 0
cons97:  >= -2
cons98:  >= 0
cons99:  >= -1
cons100:  >= 0
cons101:  >= 0
cons102:  >= -2
cons103:  >= 0
cons104:  >= -1
cons105:  x0 >= 0
cons106:  x0 >= 0
cons107:  x0 >= 0
cons108:  x0 >= -1
cons109:  x0 >= -1
cons110:  x0 >= 0
cons111:  x0 >= -1
cons112:  x0 >= 0
cons113:  x0 >= 0
cons114:  x0 >= 1
cons115:  x0 >= -1
cons116:  x0 >= 1
cons117:  x0 >= 0
cons118:  x0 >= -1
cons119:  x0 >= -1
cons120:  x1 >= 0
cons121:  x1 >= 0
cons122:  x1 >= -1
cons123:  x1 >= -1
cons124:  x1 >= -1
cons125:  x1 >= -1
cons126:  x1 >= -1
cons127:  x1 >= 1
cons128:  x1 >= 0
cons129:  x1 >= 0
cons130:  x1 >= -1
cons131:  x1 >= 1
cons132:  x1 >= 1
cons133:  x1 >= 0
cons134:  x1 >= -1
cons135:  x2 >= 0
cons136:  x2 >= -1
cons137:  x2 >= -1
cons138:  x2 >= -1
cons139:  x2 >= 0
cons140:  x2 >= 0
cons141:  x2 >= 0
cons142:  x2 >= 0
cons143:  x2 >= -1
cons144:  x2 >= 1
cons145:  x2 >= 0
cons146:  x2 >= 0
cons147:  x2 >= 0
cons148:  x2 >= -1
cons149:  x2 >= 0
cons150:  x3 >= -1
cons151:  x3 >= -1
cons152:  x3 >= -1
cons153:  x3 >= 0
cons154:  x3 >= 0
cons155:  x3 >= -1
cons156:  x3 >= -1
cons157:  x3 >= 1
cons158:  x3 >= -1
cons159:  x3 >= 1
cons160:  x3 >= -1
cons161:  x3 >= 1
cons162:  x3 >= 1
cons163:  x3 >= 0
cons164:  x3 >= -1
cons165:  >= -2
cons166:  >= -2
cons167:  >= -1
cons168:  >= -1
cons169:  >= -2
cons170:  >= -1
cons171:  >= -1
cons172:  >= 0
cons173:  >= -2
cons174:  >= 0
cons175:  >= -2
cons176:  >= -1
cons177:  >= -1
cons178:  >= -1
cons179:  >= -2
cons180:  >= 0
cons181:  >= -1
cons182:  >= 0
cons183:  >= -1
cons184:  >= 0
cons185:  >= -1
cons186:  >= -1
cons187:  >= 0
cons188:  >= 0
cons189:  >= 0
cons190:  >= 0
cons191:  >= 0
cons192:  >= 0
cons193:  >= 0
cons194:  >= 0
cons195:  >= -2
cons196:  >= -2
cons197:  >= -1
cons198:  >= -2
cons199:  >= -1
cons200:  >= -2
cons201:  >= -1
cons202:  >= 0
cons203:  >= -2
cons204:  >= 0
cons205:  >= -2
cons206:  >= 0
cons207:  >= 0
cons208:  >= -2
cons209:  >= -2
cons210:  >= -1
cons211:  >= 0
cons212:  >= -1
cons213:  >= 0
cons214:  >= 0
cons215:  >= -1
cons216:  >= 0
cons217:  >= 0
cons218:  >= 0
cons219:  >= 0
cons220:  >= 0
cons221:  >= 0
cons222:  >= 0
cons223:  >= -1
cons224:  >= 0
cons225:  >= -1
cons226:  >= -1
cons227:  >= -2
cons228:  >= -2
cons229:  >= -2
cons230:  >= -1
cons231:  >= -2
cons232:  >= 0
cons233:  >= -1
cons234:  >= -1
cons235:  >= -2
cons236:  >= -1
cons237:  >= 0
cons238:  >= -1
cons239:  >= -2
cons240:  >= -1
cons241:  >= -2
cons242:  >= -1
cons243:  >= -1
cons244:  >= -1
cons245:  >= -2
cons246:  >= -1
cons247:  >= -1
cons248:  >= -2
cons249:  >= -1
cons250:  >= -1
cons251:  >= 0
cons252:  >= -1
cons253:  >= -2
cons254:  >= -2
cons255:  >= -2
cons256:  >= -2
cons257:  >= -1
cons258:  >= -2
cons259:  >= -2
cons260:  >= -1
cons261:  >= -2
cons262:  >= 0
cons263:  >= -2
cons264:  >= 0
cons265:  >= -1
cons266:  >= 0
cons267:  >= 0
cons268:  >= -2
cons269:  >= -2
cons270:  >= -1
cons271:  >= -1
cons272:  >= -2
cons273:  >= -1
cons274:  >= -2
cons275:  >= -2
cons276:  >= -1
cons277:  >= -1
cons278:  >= -2
cons279:  >= 0
cons280:  >= -1
cons281:  >= -1
cons282:  >= -1
cons283:  >= -2
cons284:  >= -1
cons285:  >= -1
cons286:  >= 0
cons287:  >= -1
cons288:  >= 0
cons289:  >= -1
cons290:  >= -1
cons291:  >= 0
cons292:  >= 0
cons293:  >= 0
cons294:  >= 0
cons295:  >= 0
cons296:  >= 0
cons297:  >= 0
cons298:  >= 0
cons299:  >= 0
cons300:  >= -1
cons301:  >= 0
cons302:  >= -1
cons303:  >= 0
cons304:  >= 0
cons305:  >= 0
cons306:  >= -1
cons307:  >= 0
cons308:  >= 0
cons309:  >= 0
cons310:  >= -1
cons311:  >= 0
cons312:  >= 0
cons313:  >= -1
cons314:  >= 0
cons315:  >= -2
cons316:  >= -2
cons317:  >= -1
cons318:  >= -2
cons319:  >= -2
cons320:  >= -1
cons321:  >= -2
cons322:  >= 0
cons323:  >= -2
cons324:  >= 0
cons325:  >= -2
cons326:  >= 0
cons327:  >= 0
cons328:  >= -1
cons329:  >= -1
cons330:  x0 + x1 + x2 + x3 >= -4
Bounds
 0 <= x0 <= 1
 0 <= x1 <= 1
 0 <= x2 <= 1
 0 <= x3 <= 1
Integers
x0 x1 x2 x3 
End
